c FILE: huck.col
c Translated from Stanford GraphBase File: huck.gb
c Stanford GraphBase ID: book(?huck?,74,0,1,43,0,0,0)
p edge 74 602
e 4 1
e 4 2
e 5 1
e 9 1
e 9 3
e 9 4
e 9 8
e 10 1
e 10 9
e 11 1
e 11 5
e 12 4
e 13 1
e 13 5
e 13 11
e 14 8
e 14 9
e 17 6
e 18 8
e 18 9
e 18 14
e 19 4
e 20 6
e 20 17
e 21 6
e 21 17
e 21 20
e 22 1
e 22 4
e 22 9
e 22 15
e 22 18
e 23 6
e 23 17
e 23 20
e 23 21
e 24 18
e 25 1
e 25 5
e 25 11
e 25 13
e 26 22
e 27 4
e 27 19
e 28 17
e 29 1
e 29 5
e 29 11
e 29 13
e 29 25
e 30 17
e 30 23
e 31 8
e 31 9
e 31 14
e 31 18
e 31 24
e 32 4
e 34 6
e 34 17
e 34 20
e 34 21
e 34 23
e 38 8
e 38 9
e 38 14
e 38 18
e 38 31
e 39 6
e 39 17
e 39 20
e 39 21
e 39 23
e 39 34
e 40 1
e 40 5
e 40 11
e 40 13
e 40 25
e 40 29
e 41 2
e 41 4
e 41 12
e 41 19
e 41 22
e 41 27
e 41 36
e 42 22
e 42 24
e 43 2
e 43 4
e 43 12
e 43 41
e 44 1
e 44 8
e 44 9
e 44 14
e 44 18
e 44 22
e 44 31
e 44 38
e 45 4
e 46 2
e 46 4
e 46 41
e 47 4
e 47 12
e 47 41
e 47 43
e 48 35
e 49 1
e 49 4
e 49 5
e 49 9
e 49 10
e 49 11
e 49 13
e 49 22
e 49 25
e 49 29
e 49 33
e 49 37
e 49 40
e 49 44
e 50 1
e 50 5
e 50 11
e 50 13
e 50 25
e 50 29
e 50 40
e 50 49
e 51 2
e 51 41
e 51 43
e 52 3
e 52 8
e 52 9
e 52 14
e 52 18
e 52 31
e 52 38
e 52 44
e 53 3
e 53 9
e 53 52
e 55 1
e 55 2
e 55 3
e 55 4
e 55 5
e 55 6
e 55 9
e 55 10
e 55 11
e 55 12
e 55 13
e 55 15
e 55 16
e 55 17
e 55 18
e 55 19
e 55 20
e 55 21
e 55 22
e 55 23
e 55 24
e 55 25
e 55 27
e 55 29
e 55 30
e 55 31
e 55 34
e 55 36
e 55 39
e 55 40
e 55 41
e 55 42
e 55 44
e 55 46
e 55 47
e 55 49
e 55 50
e 55 52
e 55 53
e 55 54
e 56 4
e 56 19
e 56 27
e 56 41
e 56 55
e 57 2
e 57 4
e 57 12
e 57 19
e 57 22
e 57 27
e 57 36
e 57 41
e 57 43
e 57 46
e 57 47
e 57 51
e 57 55
e 57 56
e 58 35
e 58 48
e 59 1
e 59 5
e 59 11
e 59 13
e 59 25
e 59 29
e 59 40
e 59 49
e 59 50
e 59 55
e 60 4
e 60 19
e 60 27
e 60 36
e 60 41
e 60 55
e 60 56
e 60 57
e 61 22
e 62 2
e 62 4
e 62 12
e 62 27
e 62 41
e 62 46
e 62 47
e 62 55
e 62 57
e 63 1
e 63 4
e 63 22
e 64 6
e 64 17
e 64 20
e 64 21
e 64 23
e 64 34
e 64 39
e 64 55
e 65 16
e 65 55
e 66 9
e 66 22
e 66 55
e 67 4
e 67 12
e 67 41
e 67 43
e 67 47
e 67 55
e 67 57
e 67 62
e 68 4
e 68 19
e 68 27
e 68 41
e 68 55
e 68 56
e 68 57
e 68 60
e 69 1
e 69 4
e 69 9
e 69 22
e 69 49
e 69 55
e 70 7
e 71 4
e 71 32
e 71 45
e 72 1
e 72 9
e 72 10
e 72 37
e 72 49
e 72 55
e 73 4
e 73 12
e 73 19
e 73 27
e 73 41
e 73 43
e 73 47
e 73 55
e 73 56
e 73 57
e 73 60
e 73 67
e 73 68
e 74 2
e 74 41
e 74 43
e 74 51
e 74 57
